% Logging successfully configured
%%%mzn-stat: initTime=0.023076022
%%%mzn-stat: objective=1000
%%%mzn-stat: nodes=30194
%%%mzn-stat: restarts=0
%%%mzn-stat: peakDepth=775
%%%mzn-stat: solveTime=52.385069769
%%%mzn-stat: variables=1382
%%%mzn-stat: propagators=1055
%%%mzn-stat: failures=29184
%%%mzn-stat: propagations=626664
%%%mzn-stat: nogoods=29184
%%%mzn-stat: numAtomicConstraintsPropagated=0
%%%mzn-stat: circuitNumber1PropagationsTotal=134276
%%%mzn-stat: circuitNumber1CircuitConflicts=17349
%%%mzn-stat: circuitNumber1AlldiffConflicts=0
%%%mzn-stat: circuitNumber1TotalFixedEdgesAtConflict=1108846
%%%mzn-stat: circuitNumber1NumberOfConflicts=17349
%%%mzn-stat: circuitNumber1GacPrunings=221363
%%%mzn-stat: circuitNumber1PropagationsThatGacPruned=84477
%%%mzn-stat: circuitNumber1TotalPruningHallSetSize=525753
%%%mzn-stat: circuitNumber1NumberOfPruningExplanations=221363
%%%mzn-stat: circuitNumber1MaxPruningHallSetSize=53
%%%mzn-stat: circuitNumber1TotalSccSizeAtPruning=255698
%%%mzn-stat: circuitNumber1NumberOfSccPruningCalls=84477
%%%mzn-stat: circuitNumber1TotalVarsInvolvedInPruning=203438
%%%mzn-stat: circuitNumber1MaxValuesPrunedFromSingleVar=6
%%%mzn-stat: circuitNumber1HallCircuitChecks=549701
%%%mzn-stat: circuitNumber1HallCircuitPrunings=33030
%%%mzn-stat: circuitNumber1CircuitPreventPrunings=73958
%%%mzn-stat: AverageConflictSize=4.19555235745614
%%%mzn-stat: NumUnitNogoodsLearned=0
%%%mzn-stat: AverageLearnedNogoodLength=46.39864309210526
%%%mzn-stat: AverageBacktrackAmount=0
%%%mzn-stat: AverageLbd=46.37705592105263
%%%mzn-stat: 2AutonomousSearchNumBackupCalled=715
%%%mzn-stat: 2AutonomousSearchNumPredicatesRemoved=0
%%%mzn-stat: 2AutonomousSearchNumCalls=716
%%%mzn-stat: 2AutonomousSearchNumPredicatesAdded=4014
%%%mzn-stat: 2AutonomousSearchAverageSizeOfHeap=5.606145251396648
%%%mzn-stat: 2AutonomousSearchNumAssignedPredicatesEncountered=4014
%%%mzn-stat-end
maxleg = 1000;
succ = array1d(1..100,[5, 12, 8, 10, 26, 9, 14, 25, 18, 1, 3, 34, 37, 23, 11, 15, 27, 53, 16, 19, 60, 2, 24, 30, 38, 35, 29, 32, 36, 6, 20, 4, 7, 45, 22, 64, 39, 41, 47, 51, 43, 55, 57, 49, 66, 68, 52, 54, 86, 58, 46, 61, 59, 75, 72, 13, 96, 65, 84, 70, 62, 28, 89, 69, 67, 85, 100, 81, 82, 83, 74, 44, 99, 91, 40, 50, 93, 63, 77, 78, 17, 97, 88, 79, 80, 76, 42, 92, 95, 71, 33, 94, 73, 56, 48, 90, 98, 87, 21, 31]);
% time elapsed: 59.49 s
----------
%%%mzn-stat: initTime=0.023076022
%%%mzn-stat: objective=685
%%%mzn-stat: nodes=32488
%%%mzn-stat: restarts=0
%%%mzn-stat: peakDepth=782
%%%mzn-stat: solveTime=56.014292191
%%%mzn-stat: variables=1382
%%%mzn-stat: propagators=1055
%%%mzn-stat: failures=30649
%%%mzn-stat: propagations=679809
%%%mzn-stat: nogoods=30649
%%%mzn-stat: numAtomicConstraintsPropagated=0
%%%mzn-stat: circuitNumber1PropagationsTotal=143450
%%%mzn-stat: circuitNumber1CircuitConflicts=17996
%%%mzn-stat: circuitNumber1AlldiffConflicts=1
%%%mzn-stat: circuitNumber1TotalFixedEdgesAtConflict=1163263
%%%mzn-stat: circuitNumber1NumberOfConflicts=17997
%%%mzn-stat: circuitNumber1GacPrunings=241379
%%%mzn-stat: circuitNumber1PropagationsThatGacPruned=89811
%%%mzn-stat: circuitNumber1TotalPruningHallSetSize=604563
%%%mzn-stat: circuitNumber1NumberOfPruningExplanations=241379
%%%mzn-stat: circuitNumber1MaxPruningHallSetSize=53
%%%mzn-stat: circuitNumber1TotalSccSizeAtPruning=298595
%%%mzn-stat: circuitNumber1NumberOfSccPruningCalls=89811
%%%mzn-stat: circuitNumber1TotalVarsInvolvedInPruning=220113
%%%mzn-stat: circuitNumber1MaxValuesPrunedFromSingleVar=6
%%%mzn-stat: circuitNumber1HallCircuitChecks=578637
%%%mzn-stat: circuitNumber1HallCircuitPrunings=34391
%%%mzn-stat: circuitNumber1CircuitPreventPrunings=79025
%%%mzn-stat: AverageConflictSize=4.372344937844628
%%%mzn-stat: NumUnitNogoodsLearned=0
%%%mzn-stat: AverageLearnedNogoodLength=46.78302717870077
%%%mzn-stat: AverageBacktrackAmount=0
%%%mzn-stat: AverageLbd=46.721263336487326
%%%mzn-stat: 2AutonomousSearchNumBackupCalled=1429
%%%mzn-stat: 2AutonomousSearchNumPredicatesRemoved=0
%%%mzn-stat: 2AutonomousSearchNumCalls=1431
%%%mzn-stat: 2AutonomousSearchNumPredicatesAdded=6909
%%%mzn-stat: 2AutonomousSearchAverageSizeOfHeap=5.894479385045423
%%%mzn-stat: 2AutonomousSearchNumAssignedPredicatesEncountered=8435
%%%mzn-stat-end
maxleg = 685;
succ = array1d(1..100,[5, 12, 8, 10, 26, 9, 14, 25, 18, 1, 3, 34, 37, 23, 11, 15, 27, 53, 16, 19, 60, 2, 24, 30, 38, 35, 29, 32, 36, 6, 20, 4, 50, 45, 22, 64, 39, 41, 44, 51, 43, 17, 57, 31, 7, 68, 52, 54, 13, 58, 69, 61, 59, 63, 42, 47, 73, 65, 77, 70, 62, 28, 78, 97, 67, 85, 100, 89, 82, 83, 79, 55, 99, 91, 80, 86, 93, 75, 84, 66, 46, 72, 88, 81, 40, 49, 74, 92, 95, 71, 33, 94, 96, 56, 48, 90, 98, 87, 21, 76]);
% time elapsed: 63.10 s
----------
%%%mzn-stat: initTime=0.023076022
%%%mzn-stat: objective=685
%%%mzn-stat: nodes=793383
%%%mzn-stat: restarts=0
%%%mzn-stat: peakDepth=782
%%%mzn-stat: solveTime=1793.043910196
%%%mzn-stat: variables=1382
%%%mzn-stat: propagators=1055
%%%mzn-stat: failures=790208
%%%mzn-stat: propagations=18914346
%%%mzn-stat: nogoods=790208
%%%mzn-stat: numAtomicConstraintsPropagated=0
%%%mzn-stat: circuitNumber1PropagationsTotal=4046360
%%%mzn-stat: circuitNumber1CircuitConflicts=764857
%%%mzn-stat: circuitNumber1AlldiffConflicts=1
%%%mzn-stat: circuitNumber1TotalFixedEdgesAtConflict=58078454
%%%mzn-stat: circuitNumber1NumberOfConflicts=764858
%%%mzn-stat: circuitNumber1GacPrunings=5376255
%%%mzn-stat: circuitNumber1PropagationsThatGacPruned=2318165
%%%mzn-stat: circuitNumber1TotalPruningHallSetSize=13368280
%%%mzn-stat: circuitNumber1NumberOfPruningExplanations=5376255
%%%mzn-stat: circuitNumber1MaxPruningHallSetSize=53
%%%mzn-stat: circuitNumber1TotalSccSizeAtPruning=11422284
%%%mzn-stat: circuitNumber1NumberOfSccPruningCalls=2318165
%%%mzn-stat: circuitNumber1TotalVarsInvolvedInPruning=4935205
%%%mzn-stat: circuitNumber1MaxValuesPrunedFromSingleVar=6
%%%mzn-stat: circuitNumber1HallCircuitChecks=12889401
%%%mzn-stat: circuitNumber1HallCircuitPrunings=859878
%%%mzn-stat: circuitNumber1CircuitPreventPrunings=1860048
%%%mzn-stat: AverageConflictSize=6.023744381226209
%%%mzn-stat: NumUnitNogoodsLearned=0
%%%mzn-stat: AverageLearnedNogoodLength=68.27771801854702
%%%mzn-stat: AverageBacktrackAmount=0
%%%mzn-stat: AverageLbd=54.38872803110067
%%%mzn-stat: 2AutonomousSearchNumBackupCalled=1429
%%%mzn-stat: 2AutonomousSearchNumPredicatesRemoved=0
%%%mzn-stat: 2AutonomousSearchNumCalls=1431
%%%mzn-stat: 2AutonomousSearchNumPredicatesAdded=10397
%%%mzn-stat: 2AutonomousSearchAverageSizeOfHeap=5.894479385045423
%%%mzn-stat: 2AutonomousSearchNumAssignedPredicatesEncountered=8435
%%%mzn-stat-end
